NAME : portgen-30-104
COMMENT : portgen N=30, seed=104
TYPE : TSP
DIMENSION : 30
EDGE_WEIGHT_TYPE : EUC_2D
NODE_COORD_SECTION
1 2989 2252
2 1465 25
3 2557 2779
4 1189 1719
5 148 1148
6 2033 389
7 2295 2590
8 730 1485
9 1429 2728
10 3068 1493
11 573 574
12 909 92
13 1117 681
14 1504 2699
15 509 1074
16 269 592
17 2772 2271
18 2282 1997
19 2625 1738
20 151 1141
21 1752 2946
22 1421 1303
23 2112 1559
24 933 2192
25 532 2197
26 1868 2033
27 2833 1691
28 822 2397
29 2643 2356
30 905 560
